width = 23;
height = 23;

grid = 
[| true,true,true,true,true,true,false,true,true,true,true,true,true,false,true,true,true,false,true,true,true,true,true
| true,true,true,true,true,true,false,true,true,true,true,true,true,false,true,true,true,true,true,true,true,true,true
| true,true,true,true,true,true,true,true,true,true,true,true,true,false,true,true,true,true,true,true,true,true,true
| true,true,true,false,true,true,true,true,true,true,true,true,false,true,true,true,true,true,true,false,true,true,true
| true,true,true,true,true,false,true,true,true,true,true,false,true,true,true,true,true,false,true,true,true,true,true
| true,true,true,true,false,true,true,true,true,true,false,true,true,true,true,true,true,true,false,true,true,true,false
| false,false,true,true,true,true,false,true,true,true,true,true,true,true,true,true,false,true,true,true,true,true,true
| true,true,true,true,true,true,true,false,true,true,true,true,true,true,true,false,true,true,true,true,true,true,true
| true,true,true,true,true,true,true,true,false,true,true,true,true,true,false,true,true,true,true,true,true,true,true
| true,true,true,true,true,true,true,true,true,false,true,true,true,false,true,true,true,true,true,true,false,false,false
| true,true,true,true,true,false,true,true,true,true,true,true,false,true,true,true,true,true,true,false,true,true,true
| true,true,true,true,false,true,true,true,true,true,true,false,true,true,true,true,true,true,false,true,true,true,true
| true,true,true,false,true,true,true,true,true,true,false,true,true,true,true,true,true,false,true,true,true,true,true
| false,false,false,true,true,true,true,true,true,false,true,true,true,false,true,true,true,true,true,true,true,true,true
| true,true,true,true,true,true,true,true,false,true,true,true,true,true,false,true,true,true,true,true,true,true,true
| true,true,true,true,true,true,true,false,true,true,true,true,true,true,true,false,true,true,true,true,true,true,true
| true,true,true,true,true,true,false,true,true,true,true,true,true,true,true,true,false,true,true,true,true,false,false
| false,true,true,true,false,true,true,true,true,true,true,true,false,true,true,true,true,true,false,true,true,true,true
| true,true,true,true,true,false,true,true,true,true,true,false,true,true,true,true,true,false,true,true,true,true,true
| true,true,true,false,true,true,true,true,true,true,false,true,true,true,true,true,true,true,true,false,true,true,true
| true,true,true,true,true,true,true,true,true,false,true,true,true,true,true,true,true,true,true,true,true,true,true
| true,true,true,true,true,true,true,true,true,false,true,true,true,true,true,true,false,true,true,true,true,true,true
| true,true,true,true,true,false,true,true,true,false,true,true,true,true,true,true,false,true,true,true,true,true,true
|];
number_of_clues = 156;
start_rows = [1,1,1,1,2,2,2,3,3,4,4,4,4,5,5,5,5,6,6,6,6,7,7,7,8,8,8,9,9,9,10,10,10,11,11,11,11,12,12,12,12,13,13,13,13,14,14,14,15,15,15,16,16,16,17,17,17,18,18,18,18,19,19,19,19,20,20,20,20,21,21,22,22,22,23,23,23,23,1,8,15,19,1,8,15,1,15,1,5,14,21,1,7,13,19,1,6,12,20,3,8,18,1,9,17,1,10,16,1,11,15,1,7,14,21,1,6,13,20,1,5,12,19,4,11,15,1,10,16,1,9,17,1,8,18,2,6,14,20,1,7,13,19,1,5,12,21,1,11,1,11,18,1,7,11,18];
start_cols = [1,8,15,19,1,8,15,1,15,1,5,14,21,1,7,13,19,1,6,12,20,3,8,18,1,9,17,1,10,16,1,11,15,1,7,14,21,1,6,13,20,1,5,12,19,4,11,15,1,10,16,1,9,17,1,8,18,2,6,14,20,1,7,13,19,1,5,12,21,1,11,1,11,18,1,7,11,18,1,1,1,1,2,2,2,3,3,4,4,4,4,5,5,5,5,6,6,6,6,7,7,7,8,8,8,9,9,9,10,10,10,11,11,11,11,12,12,12,12,13,13,13,13,14,14,14,15,15,15,16,16,16,17,17,17,18,18,18,18,19,19,19,19,20,20,20,20,21,21,22,22,22,23,23,23,23];
is_vertical = [false,false,false,false,false,false,false,false,false,false,false,false,false,false,false,false,false,false,false,false,false,false,false,false,false,false,false,false,false,false,false,false,false,false,false,false,false,false,false,false,false,false,false,false,false,false,false,false,false,false,false,false,false,false,false,false,false,false,false,false,false,false,false,false,false,false,false,false,false,false,false,false,false,false,false,false,false,false,true,true,true,true,true,true,true,true,true,true,true,true,true,true,true,true,true,true,true,true,true,true,true,true,true,true,true,true,true,true,true,true,true,true,true,true,true,true,true,true,true,true,true,true,true,true,true,true,true,true,true,true,true,true,true,true,true,true,true,true,true,true,true,true,true,true,true,true,true,true,true,true,true,true,true,true,true,true];
lens = [6,6,3,4,6,6,8,13,8,3,8,6,2,5,5,5,4,4,5,7,3,4,9,5,7,7,6,8,5,7,9,3,6,5,6,6,2,4,6,6,3,3,6,6,4,6,3,8,8,5,7,7,7,6,6,9,4,3,7,5,3,5,5,5,4,3,6,8,2,9,12,9,6,5,5,3,6,5,6,6,3,4,6,6,8,13,8,3,8,6,2,5,5,5,4,4,5,7,3,4,9,5,7,7,6,8,5,7,9,3,6,5,6,6,2,4,6,6,3,3,6,6,4,6,3,8,8,5,7,7,7,6,6,9,4,3,7,5,3,5,5,5,4,3,6,8,2,9,12,9,6,5,5,3,6,5];
